Instance: E256-14k.dat
Class:  5
  255 --- number of customers (no depot)
   51 --- number of vehicles
  786 --- number of items
Capacity - height - width of vehicles
  1000     40     20
Node - x - y - demand
    0     0.0   -15.0     0.0
    1    -1.0   -14.0   300.0
    2     1.0   -14.0   300.0
    3    -2.0   -13.0   180.0
    4     0.0   -13.0   300.0
    5     2.0   -13.0   180.0
    6    -3.0   -12.0   128.0
    7    -1.0   -12.0   180.0
    8     1.0   -12.0   180.0
    9     3.0   -12.0   128.0
   10    -4.0   -11.0   100.0
   11    -2.0   -11.0   128.0
   12     0.0   -11.0   180.0
   13     2.0   -11.0   128.0
   14     4.0   -11.0   100.0
   15    -5.0   -10.0    81.0
   16    -3.0   -10.0   100.0
   17    -1.0   -10.0   128.0
   18     1.0   -10.0   128.0
   19     3.0   -10.0   100.0
   20     5.0   -10.0    81.0
   21    -6.0    -9.0    69.0
   22    -4.0    -9.0    81.0
   23    -2.0    -9.0   100.0
   24     0.0    -9.0   128.0
   25     2.0    -9.0   100.0
   26     4.0    -9.0    81.0
   27     6.0    -9.0    69.0
   28    -7.0    -8.0    60.0
   29    -5.0    -8.0    69.0
   30    -3.0    -8.0    81.0
   31    -1.0    -8.0   100.0
   32     1.0    -8.0   100.0
   33     3.0    -8.0    81.0
   34     5.0    -8.0    69.0
   35     7.0    -8.0    60.0
   36    -8.0    -7.0    52.0
   37    -6.0    -7.0    60.0
   38    -4.0    -7.0    69.0
   39    -2.0    -7.0    81.0
   40     0.0    -7.0   100.0
   41     2.0    -7.0    81.0
   42     4.0    -7.0    69.0
   43     6.0    -7.0    60.0
   44     8.0    -7.0    52.0
   45    -9.0    -6.0    47.0
   46    -7.0    -6.0    52.0
   47    -5.0    -6.0    60.0
   48    -3.0    -6.0    69.0
   49    -1.0    -6.0    81.0
   50     1.0    -6.0    81.0
   51     3.0    -6.0    69.0
   52     5.0    -6.0    60.0
   53     7.0    -6.0    52.0
   54     9.0    -6.0    47.0
   55   -10.0    -5.0    42.0
   56    -8.0    -5.0    47.0
   57    -6.0    -5.0    52.0
   58    -4.0    -5.0    60.0
   59    -2.0    -5.0    69.0
   60     0.0    -5.0    81.0
   61     2.0    -5.0    69.0
   62     4.0    -5.0    60.0
   63     6.0    -5.0    52.0
   64     8.0    -5.0    47.0
   65    10.0    -5.0    42.0
   66   -11.0    -4.0    39.0
   67    -9.0    -4.0    42.0
   68    -7.0    -4.0    47.0
   69    -5.0    -4.0    52.0
   70    -3.0    -4.0    60.0
   71    -1.0    -4.0    69.0
   72     1.0    -4.0    69.0
   73     3.0    -4.0    60.0
   74     5.0    -4.0    52.0
   75     7.0    -4.0    47.0
   76     9.0    -4.0    42.0
   77    11.0    -4.0    39.0
   78   -12.0    -3.0    36.0
   79   -10.0    -3.0    39.0
   80    -8.0    -3.0    42.0
   81    -6.0    -3.0    47.0
   82    -4.0    -3.0    52.0
   83    -2.0    -3.0    60.0
   84     0.0    -3.0    69.0
   85     2.0    -3.0    60.0
   86     4.0    -3.0    52.0
   87     6.0    -3.0    47.0
   88     8.0    -3.0    42.0
   89    10.0    -3.0    39.0
   90    12.0    -3.0    36.0
   91   -13.0    -2.0    33.0
   92   -11.0    -2.0    36.0
   93    -9.0    -2.0    39.0
   94    -7.0    -2.0    42.0
   95    -5.0    -2.0    47.0
   96    -3.0    -2.0    52.0
   97    -1.0    -2.0    60.0
   98     1.0    -2.0    60.0
   99     3.0    -2.0    52.0
  100     5.0    -2.0    47.0
  101     7.0    -2.0    42.0
  102     9.0    -2.0    39.0
  103    11.0    -2.0    36.0
  104    13.0    -2.0    33.0
  105   -14.0    -1.0    31.0
  106   -12.0    -1.0    33.0
  107   -10.0    -1.0    36.0
  108    -8.0    -1.0    39.0
  109    -6.0    -1.0    42.0
  110    -4.0    -1.0    47.0
  111    -2.0    -1.0    52.0
  112     0.0    -1.0    60.0
  113     2.0    -1.0    52.0
  114     4.0    -1.0    47.0
  115     6.0    -1.0    42.0
  116     8.0    -1.0    39.0
  117    10.0    -1.0    36.0
  118    12.0    -1.0    33.0
  119    14.0    -1.0    31.0
  120   -15.0     0.0    29.0
  121   -13.0     0.0    31.0
  122   -11.0     0.0    33.0
  123    -9.0     0.0    36.0
  124    -7.0     0.0    39.0
  125    -5.0     0.0    42.0
  126    -3.0     0.0    47.0
  127    -1.0     0.0    52.0
  128     1.0     0.0    52.0
  129     3.0     0.0    47.0
  130     5.0     0.0    42.0
  131     7.0     0.0    39.0
  132     9.0     0.0    36.0
  133    11.0     0.0    33.0
  134    13.0     0.0    31.0
  135    15.0     0.0    29.0
  136   -14.0     1.0    29.0
  137   -12.0     1.0    31.0
  138   -10.0     1.0    33.0
  139    -8.0     1.0    36.0
  140    -6.0     1.0    39.0
  141    -4.0     1.0    42.0
  142    -2.0     1.0    47.0
  143     0.0     1.0    52.0
  144     2.0     1.0    47.0
  145     4.0     1.0    42.0
  146     6.0     1.0    39.0
  147     8.0     1.0    36.0
  148    10.0     1.0    33.0
  149    12.0     1.0    31.0
  150    14.0     1.0    29.0
  151   -13.0     2.0    29.0
  152   -11.0     2.0    31.0
  153    -9.0     2.0    33.0
  154    -7.0     2.0    36.0
  155    -5.0     2.0    39.0
  156    -3.0     2.0    42.0
  157    -1.0     2.0    47.0
  158     1.0     2.0    47.0
  159     3.0     2.0    42.0
  160     5.0     2.0    39.0
  161     7.0     2.0    36.0
  162     9.0     2.0    33.0
  163    11.0     2.0    31.0
  164    13.0     2.0    29.0
  165   -12.0     3.0    29.0
  166   -10.0     3.0    31.0
  167    -8.0     3.0    33.0
  168    -6.0     3.0    36.0
  169    -4.0     3.0    39.0
  170    -2.0     3.0    42.0
  171     0.0     3.0    47.0
  172     2.0     3.0    42.0
  173     4.0     3.0    39.0
  174     6.0     3.0    36.0
  175     8.0     3.0    33.0
  176    10.0     3.0    31.0
  177    12.0     3.0    29.0
  178   -11.0     4.0    29.0
  179    -9.0     4.0    31.0
  180    -7.0     4.0    33.0
  181    -5.0     4.0    36.0
  182    -3.0     4.0    39.0
  183    -1.0     4.0    42.0
  184     1.0     4.0    42.0
  185     3.0     4.0    39.0
  186     5.0     4.0    36.0
  187     7.0     4.0    33.0
  188     9.0     4.0    31.0
  189    11.0     4.0    29.0
  190   -10.0     5.0    29.0
  191    -8.0     5.0    31.0
  192    -6.0     5.0    33.0
  193    -4.0     5.0    36.0
  194    -2.0     5.0    39.0
  195     0.0     5.0    42.0
  196     2.0     5.0    39.0
  197     4.0     5.0    36.0
  198     6.0     5.0    33.0
  199     8.0     5.0    31.0
  200    10.0     5.0    29.0
  201    -9.0     6.0    29.0
  202    -7.0     6.0    31.0
  203    -5.0     6.0    33.0
  204    -3.0     6.0    36.0
  205    -1.0     6.0    39.0
  206     1.0     6.0    39.0
  207     3.0     6.0    36.0
  208     5.0     6.0    33.0
  209     7.0     6.0    31.0
  210     9.0     6.0    29.0
  211    -8.0     7.0    29.0
  212    -6.0     7.0    31.0
  213    -4.0     7.0    33.0
  214    -2.0     7.0    36.0
  215     0.0     7.0    39.0
  216     2.0     7.0    36.0
  217     4.0     7.0    33.0
  218     6.0     7.0    31.0
  219     8.0     7.0    29.0
  220    -7.0     8.0    29.0
  221    -5.0     8.0    31.0
  222    -3.0     8.0    33.0
  223    -1.0     8.0    36.0
  224     1.0     8.0    36.0
  225     3.0     8.0    33.0
  226     5.0     8.0    31.0
  227     7.0     8.0    29.0
  228    -6.0     9.0    29.0
  229    -4.0     9.0    31.0
  230    -2.0     9.0    33.0
  231     0.0     9.0    36.0
  232     2.0     9.0    33.0
  233     4.0     9.0    31.0
  234     6.0     9.0    29.0
  235    -5.0    10.0    29.0
  236    -3.0    10.0    31.0
  237    -1.0    10.0    33.0
  238     1.0    10.0    33.0
  239     3.0    10.0    31.0
  240     5.0    10.0    29.0
  241    -4.0    11.0    29.0
  242    -2.0    11.0    31.0
  243     0.0    11.0    33.0
  244     2.0    11.0    31.0
  245     4.0    11.0    29.0
  246    -3.0    12.0    29.0
  247    -1.0    12.0    31.0
  248     1.0    12.0    31.0
  249     3.0    12.0    29.0
  250    -2.0    13.0    29.0
  251     0.0    13.0    31.0
  252     2.0    13.0    29.0
  253    -1.0    14.0    29.0
  254     1.0    14.0    29.0
  255     0.0    15.0    29.0
Node - number of items - h - w for each item
    0   0
    1   4    5    7   10    5    8    4    8    3
    2   1    9    3
    3   2    7    7    4    7
    4   4    8   11    7    5    5    3   24    2
    5   4    6   11    5    8   11    5   23    2
    6   2    5    9   12    6
    7   3    5   10    7    7   10    2
    8   1   22    2
    9   4   23    4   11    4   11    3    7    2
   10   5    6   12    7    9    6    8   10    6   20    3
   11   4    6    6    7    4    6    3   11    2
   12   2   23    4    5    3
   13   3    7    3    4    3    8    2
   14   2   17    4    7    3
   15   4    7   11   10    4    9    4   21    3
   16   4    7    6    8    5   18    4    8    3
   17   2    8    8    7    3
   18   4    8   10   23    3   22    2   13    2
   19   3   13    4    9    4   18    2
   20   1    5    3
   21   4    6    5    9    4    5    4    7    3
   22   4    4   10    7    8   11    4    5    4
   23   4    7    5   18    4   10    4    8    3
   24   5    5    9    7    7    5    6   10    5   12    2
   25   4   10    5   10    4    6    3   20    2
   26   5    6    8    4    6    9    5   21    2    7    2
   27   2   12    2   10    2
   28   4   12    6   11    3   10    3    8    3
   29   5    4    6    9    4   21    3    8    3    7    3
   30   4    4    9   14    4    9    4   13    3
   31   5    6   12    8   11   19    4   16    3   16    2
   32   2   23    3   11    2
   33   5   12    6    8    4    7    4   11    3    4    2
   34   5   11    6    7    6    8    4   16    3   11    3
   35   5    6   10    8    8    5    4    5    4   17    3
   36   1    4    4
   37   2    7   10    7    4
   38   5    7    9    7    8   12    3   15    2    4    2
   39   4    5   10    9    4   11    3    7    3
   40   5    5    6   11    5   11    5    8    5   12    4
   41   2    6   10    7    7
   42   1   19    4
   43   1    5    4
   44   2   11    4    8    4
   45   3   11    5    6    3    5    2
   46   3    8    6    7    4    6    4
   47   3    8   11    5    9   11    5
   48   5    8    6    7    6   17    3    7    2    7    2
   49   2    5    5   18    4
   50   2    7    8    4    6
   51   3    9    6    6    6    6    3
   52   2    7    6    6    5
   53   3    4    9    8    4    5    2
   54   4    5    8    9    4    5    4   10    3
   55   2    5    6    8    3
   56   3   10    4   10    4   17    3
   57   2   17    3   10    2
   58   3   12    6   10    4   22    2
   59   5   20    4   10    4   14    3    8    3    8    3
   60   3    6    4    5    4   10    3
   61   1    7    7
   62   4    7    8   12    4    4    3   20    2
   63   3    8    4    7    4   13    3
   64   5   10    6    8    4    7    4    6    4    9    3
   65   3   23    4    9    4    5    4
   66   3    8    6   11    5   12    4
   67   1    9    4
   68   1    8    3
   69   4    5    7    5    7    8    6   12    3
   70   2    8    5    6    5
   71   1    9    6
   72   2    7    8    8    4
   73   2    4   12    8    3
   74   1    5   10
   75   4    6   11    7    9   15    3    6    2
   76   3    5    7    8    6    8    2
   77   1    9    4
   78   1   10    2
   79   3    6   10    7    4    9    2
   80   2   17    3   11    2
   81   3    7    9    5    3   10    2
   82   5    6    7    5    6   18    4    6    2    5    2
   83   5    7    6   11    4    9    4   16    3    9    3
   84   2    7    3    6    3
   85   4    5   11    7    6    9    4    8    2
   86   2    6   10   21    3
   87   4    4    7    7    5    6    5    6    5
   88   1    5    2
   89   2    5    6    9    3
   90   2    7    9   10    3
   91   5    8    6   22    4   11    4   20    3    7    2
   92   1   13    3
   93   2    5    9   18    3
   94   3    8    6    6    4    7    3
   95   5    8   10   12    6   11    4    6    4   13    3
   96   1   11    4
   97   4    5    6   20    4    8    4    6    3
   98   5   10    5   11    3    7    3    5    3    6    2
   99   4    8   11   11    4    7    3    5    2
  100   1    4    9
  101   2   16    3   14    2
  102   2    9    5   12    2
  103   2    6    5    6    3
  104   5    7   12    6   11   12    5   14    2    7    2
  105   5    5    7    8    6   19    3    7    3    8    2
  106   3    8   11    7    7   11    4
  107   3    4    6    5    5    6    3
  108   1   10    2
  109   1   17    3
  110   5    6    5    5    5   11    4   18    3   18    2
  111   4    9    4    9    4   19    3   18    2
  112   2    5    5   20    3
  113   1    5    7
  114   3   11    5   12    3    9    3
  115   4    5    6    4    5    7    3    5    3
  116   5    6    8   17    4    4    3   16    2    7    2
  117   2    8    6    8    4
  118   1    4    2
  119   5    8   12    5    8    7    4    6    3   10    2
  120   3    5    8    9    3    8    3
  121   5   10    4    8    4    9    3    6    3    8    2
  122   2   13    3    8    2
  123   3    8    9    4    9    9    4
  124   4    5   10    8    7   11    5    5    3
  125   5    5   12   12    5   11    5    4    4    5    3
  126   4   12    4    9    4   20    3    5    3
  127   5    6    9    5    7   10    4    5    3   16    2
  128   3    4   12    9    4    6    2
  129   2    7    4    9    3
  130   1    6    9
  131   1    4    7
  132   1   19    2
  133   5    4    6    5    4   18    3    6    3    5    3
  134   4    7   11   11    5    9    4    7    2
  135   4    6    6    9    5    9    4   19    3
  136   1   10    3
  137   5    5    6   20    3   11    3    5    3   20    2
  138   3    8    5    8    3    5    2
  139   4    6   10   14    4   14    3    4    3
  140   4    6    7    7    3    6    3    5    3
  141   5    7   11    7    9    7    9    5    6   14    4
  142   4    4    6    4    5    6    4   21    3
  143   1    6    2
  144   5    5   11    7    4    5    4    5    3    8    2
  145   3    5   12   24    4   17    3
  146   4    5   11    7   10   10    6   20    3
  147   4    4    7    5    5   17    3    6    2
  148   3    9    6    4    3    5    2
  149   4    5    9    7    5    4    4    4    2
  150   1    8    3
  151   1    9    3
  152   2   12    5   15    3
  153   3   13    3    8    3    5    3
  154   3    6    5   10    4    9    4
  155   5    4   11    7   10    7    7    9    6   11    4
  156   2   10    5    7    4
  157   3    4    5   14    4    7    2
  158   4    7    9   10    5    9    3    7    2
  159   2   20    3    5    3
  160   4    7    6    4    4   22    2   11    2
  161   3    8    4    5    4    5    3
  162   1    8    3
  163   3    6    4   13    3   19    2
  164   3    9    3   11    2    9    2
  165   5    7    8    7    6   19    4   17    3   16    3
  166   5    6   10    8    9   10    5   16    2    5    2
  167   2    9    3    9    3
  168   1   19    3
  169   5    6    7    9    5    4    4    6    3    5    3
  170   1   10    4
  171   2    5   11    4    3
  172   5   10    5    8    4   19    3   14    3    4    3
  173   2    8    4   10    3
  174   5    8   11    5   11    9    5   14    3    9    3
  175   3    8    5    7    5    9    4
  176   4    5    9    6    6   12    4   23    2
  177   4    5   12    6    5    5    4    4    4
  178   5    4   10    7    6   11    5    8    4   20    2
  179   4    6   12   11    5   12    4    6    2
  180   3   10    4   13    3    9    3
  181   2    5    9    6    5
  182   2    7    8    8    7
  183   1   18    4
  184   4   16    4   22    3   14    3    6    3
  185   3   16    4    6    4    8    3
  186   1   13    4
  187   3    5    5   18    4    6    3
  188   3    5    4   22    3    5    3
  189   4    5   10    5    9    8    6    6    2
  190   4   16    4    7    4   22    3   19    2
  191   5    5   11    6    6    5    6   24    4    9    2
  192   4   10    5    7    4   24    2    8    2
  193   3    5   11    6    6   12    4
  194   3   10    3    7    3    9    2
  195   3    8    5   18    4    9    2
  196   1   11    3
  197   2    6    5    6    3
  198   1    5    5
  199   3    6    5    7    4    5    3
  200   5    6    5   13    3   10    3    6    3   13    2
  201   1    9    4
  202   4    4   11    6    3    5    3   14    2
  203   4    7   11   14    3   22    2    5    2
  204   1   21    2
  205   4    6    9    5    6    8    4   21    3
  206   4    8    4   17    3   12    3    6    2
  207   1   12    3
  208   5    7    7   21    4   14    3    9    3    7    3
  209   5    5   11    9    3    9    3    8    3    5    3
  210   5    8    3    7    3    6    3    5    3    8    2
  211   5    5    9    7    4    4    4    9    3    6    2
  212   5    6    8   11    4    9    3    6    3    5    3
  213   1    9    4
  214   4    6    7    8    3   12    2    7    2
  215   4    5   12    5    7   14    4    9    4
  216   5    8    8    8    3    7    3   17    2    7    2
  217   3   11    4    7    3    7    2
  218   1   22    4
  219   5    6   10   12    5   13    3   10    3    7    3
  220   5    5    6    6    4   16    3   14    3    4    3
  221   4    4   10    5    9   14    4   19    3
  222   2    8    6    6    3
  223   4    6   11    4    4   12    3    5    2
  224   1   20    2
  225   1    7    7
  226   3   11    5    4    5    4    5
  227   1    5   10
  228   1    8    6
  229   2   11    6    5    4
  230   4    5   11    7    5   14    4    7    4
  231   3    7    4    7    3    4    3
  232   5    5   10    4   10    7    6    4    6    8    4
  233   1    4    6
  234   5    6    9    7    8    6    8    4    7   16    4
  235   3   12    4   10    4   11    2
  236   3    6    6    8    5    5    4
  237   2    8   10   17    4
  238   3    6    4   22    3    6    3
  239   5   10    6   11    5   11    5    6    4   16    3
  240   4    7    7    5    7   15    4   11    4
  241   3    6   11   20    3   21    2
  242   3    8    6    6    3    5    3
  243   4   11    6   11    5   12    3   23    2
  244   5    4    9    7    4    4    4   10    3    6    3
  245   1    4    9
  246   3    6    6   22    2    7    2
  247   1    7    2
  248   3    8   10    6    4   10    2
  249   3    5   12    4   10    9    3
  250   5    7   11    6    8    4    5    8    2    7    2
  251   1   14    2
  252   1   19    2
  253   5    7   12   12    6    7    5    6    3    9    2
  254   4    6    7   12    4    6    4   16    2
  255   3    6    6   24    3    9    2
